; Portuguese Bank dataset
; Nested column-slice encoding
; Column: duration

(set-logic ALL)

(declare-const D (Array Int (Array Int Int)))
(define-fun m () Int 200)
(define-fun n () Int 1)

(define-fun row1 ((x0 Int)) (Array Int Int)
  (store ((as const (Array Int Int)) 0) 0 x0)
)

(assert (= (select D 0) (row1 261)))
(assert (= (select D 1) (row1 151)))
(assert (= (select D 2) (row1 76)))
(assert (= (select D 3) (row1 92)))
(assert (= (select D 4) (row1 198)))
(assert (= (select D 5) (row1 139)))
(assert (= (select D 6) (row1 217)))
(assert (= (select D 7) (row1 380)))
(assert (= (select D 8) (row1 50)))
(assert (= (select D 9) (row1 55)))
(assert (= (select D 10) (row1 222)))
(assert (= (select D 11) (row1 137)))
(assert (= (select D 12) (row1 517)))
(assert (= (select D 13) (row1 71)))
(assert (= (select D 14) (row1 174)))
(assert (= (select D 15) (row1 353)))
(assert (= (select D 16) (row1 98)))
(assert (= (select D 17) (row1 38)))
(assert (= (select D 18) (row1 219)))
(assert (= (select D 19) (row1 54)))
(assert (= (select D 20) (row1 262)))
(assert (= (select D 21) (row1 164)))
(assert (= (select D 22) (row1 160)))
(assert (= (select D 23) (row1 342)))
(assert (= (select D 24) (row1 181)))
(assert (= (select D 25) (row1 172)))
(assert (= (select D 26) (row1 296)))
(assert (= (select D 27) (row1 127)))
(assert (= (select D 28) (row1 255)))
(assert (= (select D 29) (row1 348)))
(assert (= (select D 30) (row1 225)))
(assert (= (select D 31) (row1 230)))
(assert (= (select D 32) (row1 208)))
(assert (= (select D 33) (row1 226)))
(assert (= (select D 34) (row1 336)))
(assert (= (select D 35) (row1 242)))
(assert (= (select D 36) (row1 365)))
(assert (= (select D 37) (row1 1666)))
(assert (= (select D 38) (row1 577)))
(assert (= (select D 39) (row1 137)))
(assert (= (select D 40) (row1 160)))
(assert (= (select D 41) (row1 180)))
(assert (= (select D 42) (row1 22)))
(assert (= (select D 43) (row1 1492)))
(assert (= (select D 44) (row1 616)))
(assert (= (select D 45) (row1 242)))
(assert (= (select D 46) (row1 355)))
(assert (= (select D 47) (row1 225)))
(assert (= (select D 48) (row1 160)))
(assert (= (select D 49) (row1 363)))
(assert (= (select D 50) (row1 266)))
(assert (= (select D 51) (row1 253)))
(assert (= (select D 52) (row1 179)))
(assert (= (select D 53) (row1 787)))
(assert (= (select D 54) (row1 145)))
(assert (= (select D 55) (row1 174)))
(assert (= (select D 56) (row1 104)))
(assert (= (select D 57) (row1 13)))
(assert (= (select D 58) (row1 185)))
(assert (= (select D 59) (row1 1778)))
(assert (= (select D 60) (row1 138)))
(assert (= (select D 61) (row1 812)))
(assert (= (select D 62) (row1 164)))
(assert (= (select D 63) (row1 391)))
(assert (= (select D 64) (row1 357)))
(assert (= (select D 65) (row1 91)))
(assert (= (select D 66) (row1 528)))
(assert (= (select D 67) (row1 273)))
(assert (= (select D 68) (row1 158)))
(assert (= (select D 69) (row1 177)))
(assert (= (select D 70) (row1 258)))
(assert (= (select D 71) (row1 172)))
(assert (= (select D 72) (row1 154)))
(assert (= (select D 73) (row1 291)))
(assert (= (select D 74) (row1 181)))
(assert (= (select D 75) (row1 176)))
(assert (= (select D 76) (row1 211)))
(assert (= (select D 77) (row1 349)))
(assert (= (select D 78) (row1 272)))
(assert (= (select D 79) (row1 208)))
(assert (= (select D 80) (row1 193)))
(assert (= (select D 81) (row1 212)))
(assert (= (select D 82) (row1 20)))
(assert (= (select D 83) (row1 1042)))
(assert (= (select D 84) (row1 246)))
(assert (= (select D 85) (row1 529)))
(assert (= (select D 86) (row1 1467)))
(assert (= (select D 87) (row1 1389)))
(assert (= (select D 88) (row1 188)))
(assert (= (select D 89) (row1 180)))
(assert (= (select D 90) (row1 48)))
(assert (= (select D 91) (row1 213)))
(assert (= (select D 92) (row1 583)))
(assert (= (select D 93) (row1 221)))
(assert (= (select D 94) (row1 173)))
(assert (= (select D 95) (row1 426)))
(assert (= (select D 96) (row1 287)))
(assert (= (select D 97) (row1 101)))
(assert (= (select D 98) (row1 203)))
(assert (= (select D 99) (row1 197)))
(assert (= (select D 100) (row1 257)))
(assert (= (select D 101) (row1 124)))
(assert (= (select D 102) (row1 229)))
(assert (= (select D 103) (row1 55)))
(assert (= (select D 104) (row1 400)))
(assert (= (select D 105) (row1 197)))
(assert (= (select D 106) (row1 190)))
(assert (= (select D 107) (row1 21)))
(assert (= (select D 108) (row1 514)))
(assert (= (select D 109) (row1 849)))
(assert (= (select D 110) (row1 194)))
(assert (= (select D 111) (row1 144)))
(assert (= (select D 112) (row1 212)))
(assert (= (select D 113) (row1 286)))
(assert (= (select D 114) (row1 107)))
(assert (= (select D 115) (row1 247)))
(assert (= (select D 116) (row1 518)))
(assert (= (select D 117) (row1 364)))
(assert (= (select D 118) (row1 178)))
(assert (= (select D 119) (row1 98)))
(assert (= (select D 120) (row1 439)))
(assert (= (select D 121) (row1 79)))
(assert (= (select D 122) (row1 120)))
(assert (= (select D 123) (row1 127)))
(assert (= (select D 124) (row1 175)))
(assert (= (select D 125) (row1 262)))
(assert (= (select D 126) (row1 61)))
(assert (= (select D 127) (row1 78)))
(assert (= (select D 128) (row1 143)))
(assert (= (select D 129) (row1 579)))
(assert (= (select D 130) (row1 677)))
(assert (= (select D 131) (row1 345)))
(assert (= (select D 132) (row1 185)))
(assert (= (select D 133) (row1 100)))
(assert (= (select D 134) (row1 125)))
(assert (= (select D 135) (row1 193)))
(assert (= (select D 136) (row1 136)))
(assert (= (select D 137) (row1 73)))
(assert (= (select D 138) (row1 528)))
(assert (= (select D 139) (row1 541)))
(assert (= (select D 140) (row1 163)))
(assert (= (select D 141) (row1 301)))
(assert (= (select D 142) (row1 46)))
(assert (= (select D 143) (row1 204)))
(assert (= (select D 144) (row1 98)))
(assert (= (select D 145) (row1 71)))
(assert (= (select D 146) (row1 157)))
(assert (= (select D 147) (row1 243)))
(assert (= (select D 148) (row1 186)))
(assert (= (select D 149) (row1 579)))
(assert (= (select D 150) (row1 163)))
(assert (= (select D 151) (row1 610)))
(assert (= (select D 152) (row1 2033)))
(assert (= (select D 153) (row1 85)))
(assert (= (select D 154) (row1 114)))
(assert (= (select D 155) (row1 114)))
(assert (= (select D 156) (row1 57)))
(assert (= (select D 157) (row1 238)))
(assert (= (select D 158) (row1 93)))
(assert (= (select D 159) (row1 128)))
(assert (= (select D 160) (row1 107)))
(assert (= (select D 161) (row1 181)))
(assert (= (select D 162) (row1 303)))
(assert (= (select D 163) (row1 558)))
(assert (= (select D 164) (row1 270)))
(assert (= (select D 165) (row1 228)))
(assert (= (select D 166) (row1 99)))
(assert (= (select D 167) (row1 240)))
(assert (= (select D 168) (row1 673)))
(assert (= (select D 169) (row1 233)))
(assert (= (select D 170) (row1 1056)))
(assert (= (select D 171) (row1 250)))
(assert (= (select D 172) (row1 252)))
(assert (= (select D 173) (row1 138)))
(assert (= (select D 174) (row1 130)))
(assert (= (select D 175) (row1 412)))
(assert (= (select D 176) (row1 179)))
(assert (= (select D 177) (row1 19)))
(assert (= (select D 178) (row1 458)))
(assert (= (select D 179) (row1 717)))
(assert (= (select D 180) (row1 313)))
(assert (= (select D 181) (row1 683)))
(assert (= (select D 182) (row1 1077)))
(assert (= (select D 183) (row1 416)))
(assert (= (select D 184) (row1 146)))
(assert (= (select D 185) (row1 167)))
(assert (= (select D 186) (row1 315)))
(assert (= (select D 187) (row1 140)))
(assert (= (select D 188) (row1 346)))
(assert (= (select D 189) (row1 562)))
(assert (= (select D 190) (row1 172)))
(assert (= (select D 191) (row1 217)))
(assert (= (select D 192) (row1 142)))
(assert (= (select D 193) (row1 67)))
(assert (= (select D 194) (row1 291)))
(assert (= (select D 195) (row1 309)))
(assert (= (select D 196) (row1 248)))
(assert (= (select D 197) (row1 98)))
(assert (= (select D 198) (row1 256)))
(assert (= (select D 199) (row1 82)))

; ======================================
; Grounding-style local range validity (m=200)
; Encoding: nested column slice
; Property: 0 <= duration < 5000
; ======================================

(assert
  (and
    (and (>= (select (select D 0) 0) 0) (< (select (select D 0) 0) 5000))
    (and (>= (select (select D 1) 0) 0) (< (select (select D 1) 0) 5000))
    (and (>= (select (select D 2) 0) 0) (< (select (select D 2) 0) 5000))
    (and (>= (select (select D 3) 0) 0) (< (select (select D 3) 0) 5000))
    (and (>= (select (select D 4) 0) 0) (< (select (select D 4) 0) 5000))
    (and (>= (select (select D 5) 0) 0) (< (select (select D 5) 0) 5000))
    (and (>= (select (select D 6) 0) 0) (< (select (select D 6) 0) 5000))
    (and (>= (select (select D 7) 0) 0) (< (select (select D 7) 0) 5000))
    (and (>= (select (select D 8) 0) 0) (< (select (select D 8) 0) 5000))
    (and (>= (select (select D 9) 0) 0) (< (select (select D 9) 0) 5000))
    (and (>= (select (select D 10) 0) 0) (< (select (select D 10) 0) 5000))
    (and (>= (select (select D 11) 0) 0) (< (select (select D 11) 0) 5000))
    (and (>= (select (select D 12) 0) 0) (< (select (select D 12) 0) 5000))
    (and (>= (select (select D 13) 0) 0) (< (select (select D 13) 0) 5000))
    (and (>= (select (select D 14) 0) 0) (< (select (select D 14) 0) 5000))
    (and (>= (select (select D 15) 0) 0) (< (select (select D 15) 0) 5000))
    (and (>= (select (select D 16) 0) 0) (< (select (select D 16) 0) 5000))
    (and (>= (select (select D 17) 0) 0) (< (select (select D 17) 0) 5000))
    (and (>= (select (select D 18) 0) 0) (< (select (select D 18) 0) 5000))
    (and (>= (select (select D 19) 0) 0) (< (select (select D 19) 0) 5000))
    (and (>= (select (select D 20) 0) 0) (< (select (select D 20) 0) 5000))
    (and (>= (select (select D 21) 0) 0) (< (select (select D 21) 0) 5000))
    (and (>= (select (select D 22) 0) 0) (< (select (select D 22) 0) 5000))
    (and (>= (select (select D 23) 0) 0) (< (select (select D 23) 0) 5000))
    (and (>= (select (select D 24) 0) 0) (< (select (select D 24) 0) 5000))
    (and (>= (select (select D 25) 0) 0) (< (select (select D 25) 0) 5000))
    (and (>= (select (select D 26) 0) 0) (< (select (select D 26) 0) 5000))
    (and (>= (select (select D 27) 0) 0) (< (select (select D 27) 0) 5000))
    (and (>= (select (select D 28) 0) 0) (< (select (select D 28) 0) 5000))
    (and (>= (select (select D 29) 0) 0) (< (select (select D 29) 0) 5000))
    (and (>= (select (select D 30) 0) 0) (< (select (select D 30) 0) 5000))
    (and (>= (select (select D 31) 0) 0) (< (select (select D 31) 0) 5000))
    (and (>= (select (select D 32) 0) 0) (< (select (select D 32) 0) 5000))
    (and (>= (select (select D 33) 0) 0) (< (select (select D 33) 0) 5000))
    (and (>= (select (select D 34) 0) 0) (< (select (select D 34) 0) 5000))
    (and (>= (select (select D 35) 0) 0) (< (select (select D 35) 0) 5000))
    (and (>= (select (select D 36) 0) 0) (< (select (select D 36) 0) 5000))
    (and (>= (select (select D 37) 0) 0) (< (select (select D 37) 0) 5000))
    (and (>= (select (select D 38) 0) 0) (< (select (select D 38) 0) 5000))
    (and (>= (select (select D 39) 0) 0) (< (select (select D 39) 0) 5000))
    (and (>= (select (select D 40) 0) 0) (< (select (select D 40) 0) 5000))
    (and (>= (select (select D 41) 0) 0) (< (select (select D 41) 0) 5000))
    (and (>= (select (select D 42) 0) 0) (< (select (select D 42) 0) 5000))
    (and (>= (select (select D 43) 0) 0) (< (select (select D 43) 0) 5000))
    (and (>= (select (select D 44) 0) 0) (< (select (select D 44) 0) 5000))
    (and (>= (select (select D 45) 0) 0) (< (select (select D 45) 0) 5000))
    (and (>= (select (select D 46) 0) 0) (< (select (select D 46) 0) 5000))
    (and (>= (select (select D 47) 0) 0) (< (select (select D 47) 0) 5000))
    (and (>= (select (select D 48) 0) 0) (< (select (select D 48) 0) 5000))
    (and (>= (select (select D 49) 0) 0) (< (select (select D 49) 0) 5000))
    (and (>= (select (select D 50) 0) 0) (< (select (select D 50) 0) 5000))
    (and (>= (select (select D 51) 0) 0) (< (select (select D 51) 0) 5000))
    (and (>= (select (select D 52) 0) 0) (< (select (select D 52) 0) 5000))
    (and (>= (select (select D 53) 0) 0) (< (select (select D 53) 0) 5000))
    (and (>= (select (select D 54) 0) 0) (< (select (select D 54) 0) 5000))
    (and (>= (select (select D 55) 0) 0) (< (select (select D 55) 0) 5000))
    (and (>= (select (select D 56) 0) 0) (< (select (select D 56) 0) 5000))
    (and (>= (select (select D 57) 0) 0) (< (select (select D 57) 0) 5000))
    (and (>= (select (select D 58) 0) 0) (< (select (select D 58) 0) 5000))
    (and (>= (select (select D 59) 0) 0) (< (select (select D 59) 0) 5000))
    (and (>= (select (select D 60) 0) 0) (< (select (select D 60) 0) 5000))
    (and (>= (select (select D 61) 0) 0) (< (select (select D 61) 0) 5000))
    (and (>= (select (select D 62) 0) 0) (< (select (select D 62) 0) 5000))
    (and (>= (select (select D 63) 0) 0) (< (select (select D 63) 0) 5000))
    (and (>= (select (select D 64) 0) 0) (< (select (select D 64) 0) 5000))
    (and (>= (select (select D 65) 0) 0) (< (select (select D 65) 0) 5000))
    (and (>= (select (select D 66) 0) 0) (< (select (select D 66) 0) 5000))
    (and (>= (select (select D 67) 0) 0) (< (select (select D 67) 0) 5000))
    (and (>= (select (select D 68) 0) 0) (< (select (select D 68) 0) 5000))
    (and (>= (select (select D 69) 0) 0) (< (select (select D 69) 0) 5000))
    (and (>= (select (select D 70) 0) 0) (< (select (select D 70) 0) 5000))
    (and (>= (select (select D 71) 0) 0) (< (select (select D 71) 0) 5000))
    (and (>= (select (select D 72) 0) 0) (< (select (select D 72) 0) 5000))
    (and (>= (select (select D 73) 0) 0) (< (select (select D 73) 0) 5000))
    (and (>= (select (select D 74) 0) 0) (< (select (select D 74) 0) 5000))
    (and (>= (select (select D 75) 0) 0) (< (select (select D 75) 0) 5000))
    (and (>= (select (select D 76) 0) 0) (< (select (select D 76) 0) 5000))
    (and (>= (select (select D 77) 0) 0) (< (select (select D 77) 0) 5000))
    (and (>= (select (select D 78) 0) 0) (< (select (select D 78) 0) 5000))
    (and (>= (select (select D 79) 0) 0) (< (select (select D 79) 0) 5000))
    (and (>= (select (select D 80) 0) 0) (< (select (select D 80) 0) 5000))
    (and (>= (select (select D 81) 0) 0) (< (select (select D 81) 0) 5000))
    (and (>= (select (select D 82) 0) 0) (< (select (select D 82) 0) 5000))
    (and (>= (select (select D 83) 0) 0) (< (select (select D 83) 0) 5000))
    (and (>= (select (select D 84) 0) 0) (< (select (select D 84) 0) 5000))
    (and (>= (select (select D 85) 0) 0) (< (select (select D 85) 0) 5000))
    (and (>= (select (select D 86) 0) 0) (< (select (select D 86) 0) 5000))
    (and (>= (select (select D 87) 0) 0) (< (select (select D 87) 0) 5000))
    (and (>= (select (select D 88) 0) 0) (< (select (select D 88) 0) 5000))
    (and (>= (select (select D 89) 0) 0) (< (select (select D 89) 0) 5000))
    (and (>= (select (select D 90) 0) 0) (< (select (select D 90) 0) 5000))
    (and (>= (select (select D 91) 0) 0) (< (select (select D 91) 0) 5000))
    (and (>= (select (select D 92) 0) 0) (< (select (select D 92) 0) 5000))
    (and (>= (select (select D 93) 0) 0) (< (select (select D 93) 0) 5000))
    (and (>= (select (select D 94) 0) 0) (< (select (select D 94) 0) 5000))
    (and (>= (select (select D 95) 0) 0) (< (select (select D 95) 0) 5000))
    (and (>= (select (select D 96) 0) 0) (< (select (select D 96) 0) 5000))
    (and (>= (select (select D 97) 0) 0) (< (select (select D 97) 0) 5000))
    (and (>= (select (select D 98) 0) 0) (< (select (select D 98) 0) 5000))
    (and (>= (select (select D 99) 0) 0) (< (select (select D 99) 0) 5000))
    (and (>= (select (select D 100) 0) 0) (< (select (select D 100) 0) 5000))
    (and (>= (select (select D 101) 0) 0) (< (select (select D 101) 0) 5000))
    (and (>= (select (select D 102) 0) 0) (< (select (select D 102) 0) 5000))
    (and (>= (select (select D 103) 0) 0) (< (select (select D 103) 0) 5000))
    (and (>= (select (select D 104) 0) 0) (< (select (select D 104) 0) 5000))
    (and (>= (select (select D 105) 0) 0) (< (select (select D 105) 0) 5000))
    (and (>= (select (select D 106) 0) 0) (< (select (select D 106) 0) 5000))
    (and (>= (select (select D 107) 0) 0) (< (select (select D 107) 0) 5000))
    (and (>= (select (select D 108) 0) 0) (< (select (select D 108) 0) 5000))
    (and (>= (select (select D 109) 0) 0) (< (select (select D 109) 0) 5000))
    (and (>= (select (select D 110) 0) 0) (< (select (select D 110) 0) 5000))
    (and (>= (select (select D 111) 0) 0) (< (select (select D 111) 0) 5000))
    (and (>= (select (select D 112) 0) 0) (< (select (select D 112) 0) 5000))
    (and (>= (select (select D 113) 0) 0) (< (select (select D 113) 0) 5000))
    (and (>= (select (select D 114) 0) 0) (< (select (select D 114) 0) 5000))
    (and (>= (select (select D 115) 0) 0) (< (select (select D 115) 0) 5000))
    (and (>= (select (select D 116) 0) 0) (< (select (select D 116) 0) 5000))
    (and (>= (select (select D 117) 0) 0) (< (select (select D 117) 0) 5000))
    (and (>= (select (select D 118) 0) 0) (< (select (select D 118) 0) 5000))
    (and (>= (select (select D 119) 0) 0) (< (select (select D 119) 0) 5000))
    (and (>= (select (select D 120) 0) 0) (< (select (select D 120) 0) 5000))
    (and (>= (select (select D 121) 0) 0) (< (select (select D 121) 0) 5000))
    (and (>= (select (select D 122) 0) 0) (< (select (select D 122) 0) 5000))
    (and (>= (select (select D 123) 0) 0) (< (select (select D 123) 0) 5000))
    (and (>= (select (select D 124) 0) 0) (< (select (select D 124) 0) 5000))
    (and (>= (select (select D 125) 0) 0) (< (select (select D 125) 0) 5000))
    (and (>= (select (select D 126) 0) 0) (< (select (select D 126) 0) 5000))
    (and (>= (select (select D 127) 0) 0) (< (select (select D 127) 0) 5000))
    (and (>= (select (select D 128) 0) 0) (< (select (select D 128) 0) 5000))
    (and (>= (select (select D 129) 0) 0) (< (select (select D 129) 0) 5000))
    (and (>= (select (select D 130) 0) 0) (< (select (select D 130) 0) 5000))
    (and (>= (select (select D 131) 0) 0) (< (select (select D 131) 0) 5000))
    (and (>= (select (select D 132) 0) 0) (< (select (select D 132) 0) 5000))
    (and (>= (select (select D 133) 0) 0) (< (select (select D 133) 0) 5000))
    (and (>= (select (select D 134) 0) 0) (< (select (select D 134) 0) 5000))
    (and (>= (select (select D 135) 0) 0) (< (select (select D 135) 0) 5000))
    (and (>= (select (select D 136) 0) 0) (< (select (select D 136) 0) 5000))
    (and (>= (select (select D 137) 0) 0) (< (select (select D 137) 0) 5000))
    (and (>= (select (select D 138) 0) 0) (< (select (select D 138) 0) 5000))
    (and (>= (select (select D 139) 0) 0) (< (select (select D 139) 0) 5000))
    (and (>= (select (select D 140) 0) 0) (< (select (select D 140) 0) 5000))
    (and (>= (select (select D 141) 0) 0) (< (select (select D 141) 0) 5000))
    (and (>= (select (select D 142) 0) 0) (< (select (select D 142) 0) 5000))
    (and (>= (select (select D 143) 0) 0) (< (select (select D 143) 0) 5000))
    (and (>= (select (select D 144) 0) 0) (< (select (select D 144) 0) 5000))
    (and (>= (select (select D 145) 0) 0) (< (select (select D 145) 0) 5000))
    (and (>= (select (select D 146) 0) 0) (< (select (select D 146) 0) 5000))
    (and (>= (select (select D 147) 0) 0) (< (select (select D 147) 0) 5000))
    (and (>= (select (select D 148) 0) 0) (< (select (select D 148) 0) 5000))
    (and (>= (select (select D 149) 0) 0) (< (select (select D 149) 0) 5000))
    (and (>= (select (select D 150) 0) 0) (< (select (select D 150) 0) 5000))
    (and (>= (select (select D 151) 0) 0) (< (select (select D 151) 0) 5000))
    (and (>= (select (select D 152) 0) 0) (< (select (select D 152) 0) 5000))
    (and (>= (select (select D 153) 0) 0) (< (select (select D 153) 0) 5000))
    (and (>= (select (select D 154) 0) 0) (< (select (select D 154) 0) 5000))
    (and (>= (select (select D 155) 0) 0) (< (select (select D 155) 0) 5000))
    (and (>= (select (select D 156) 0) 0) (< (select (select D 156) 0) 5000))
    (and (>= (select (select D 157) 0) 0) (< (select (select D 157) 0) 5000))
    (and (>= (select (select D 158) 0) 0) (< (select (select D 158) 0) 5000))
    (and (>= (select (select D 159) 0) 0) (< (select (select D 159) 0) 5000))
    (and (>= (select (select D 160) 0) 0) (< (select (select D 160) 0) 5000))
    (and (>= (select (select D 161) 0) 0) (< (select (select D 161) 0) 5000))
    (and (>= (select (select D 162) 0) 0) (< (select (select D 162) 0) 5000))
    (and (>= (select (select D 163) 0) 0) (< (select (select D 163) 0) 5000))
    (and (>= (select (select D 164) 0) 0) (< (select (select D 164) 0) 5000))
    (and (>= (select (select D 165) 0) 0) (< (select (select D 165) 0) 5000))
    (and (>= (select (select D 166) 0) 0) (< (select (select D 166) 0) 5000))
    (and (>= (select (select D 167) 0) 0) (< (select (select D 167) 0) 5000))
    (and (>= (select (select D 168) 0) 0) (< (select (select D 168) 0) 5000))
    (and (>= (select (select D 169) 0) 0) (< (select (select D 169) 0) 5000))
    (and (>= (select (select D 170) 0) 0) (< (select (select D 170) 0) 5000))
    (and (>= (select (select D 171) 0) 0) (< (select (select D 171) 0) 5000))
    (and (>= (select (select D 172) 0) 0) (< (select (select D 172) 0) 5000))
    (and (>= (select (select D 173) 0) 0) (< (select (select D 173) 0) 5000))
    (and (>= (select (select D 174) 0) 0) (< (select (select D 174) 0) 5000))
    (and (>= (select (select D 175) 0) 0) (< (select (select D 175) 0) 5000))
    (and (>= (select (select D 176) 0) 0) (< (select (select D 176) 0) 5000))
    (and (>= (select (select D 177) 0) 0) (< (select (select D 177) 0) 5000))
    (and (>= (select (select D 178) 0) 0) (< (select (select D 178) 0) 5000))
    (and (>= (select (select D 179) 0) 0) (< (select (select D 179) 0) 5000))
    (and (>= (select (select D 180) 0) 0) (< (select (select D 180) 0) 5000))
    (and (>= (select (select D 181) 0) 0) (< (select (select D 181) 0) 5000))
    (and (>= (select (select D 182) 0) 0) (< (select (select D 182) 0) 5000))
    (and (>= (select (select D 183) 0) 0) (< (select (select D 183) 0) 5000))
    (and (>= (select (select D 184) 0) 0) (< (select (select D 184) 0) 5000))
    (and (>= (select (select D 185) 0) 0) (< (select (select D 185) 0) 5000))
    (and (>= (select (select D 186) 0) 0) (< (select (select D 186) 0) 5000))
    (and (>= (select (select D 187) 0) 0) (< (select (select D 187) 0) 5000))
    (and (>= (select (select D 188) 0) 0) (< (select (select D 188) 0) 5000))
    (and (>= (select (select D 189) 0) 0) (< (select (select D 189) 0) 5000))
    (and (>= (select (select D 190) 0) 0) (< (select (select D 190) 0) 5000))
    (and (>= (select (select D 191) 0) 0) (< (select (select D 191) 0) 5000))
    (and (>= (select (select D 192) 0) 0) (< (select (select D 192) 0) 5000))
    (and (>= (select (select D 193) 0) 0) (< (select (select D 193) 0) 5000))
    (and (>= (select (select D 194) 0) 0) (< (select (select D 194) 0) 5000))
    (and (>= (select (select D 195) 0) 0) (< (select (select D 195) 0) 5000))
    (and (>= (select (select D 196) 0) 0) (< (select (select D 196) 0) 5000))
    (and (>= (select (select D 197) 0) 0) (< (select (select D 197) 0) 5000))
    (and (>= (select (select D 198) 0) 0) (< (select (select D 198) 0) 5000))
    (and (>= (select (select D 199) 0) 0) (< (select (select D 199) 0) 5000))
  )
)

(check-sat)
